
******************************************************************************
This program contains Ipopt, a library for large-scale nonlinear optimization.
 Ipopt is released as open source code under the Eclipse Public License (EPL).
         For more information visit http://projects.coin-or.org/Ipopt

This version of Ipopt was compiled from source code available at
    https://github.com/IDAES/Ipopt as part of the Institute for the Design of
    Advanced Energy Systems Process Systems Engineering Framework (IDAES PSE
    Framework) Copyright (c) 2018-2019. See https://github.com/IDAES/idaes-pse.

This version of Ipopt was compiled using HSL, a collection of Fortran codes
    for large-scale scientific computation.  All technical papers, sales and
    publicity material resulting from use of the HSL codes within IPOPT must
    contain the following acknowledgement:
        HSL, a collection of Fortran codes for large-scale scientific
        computation. See http://www.hsl.rl.ac.uk.
******************************************************************************

This is Ipopt version 3.13.2, running with linear solver ma27.

Number of nonzeros in equality constraint Jacobian...:      928
Number of nonzeros in inequality constraint Jacobian.:        0
Number of nonzeros in Lagrangian Hessian.............:      806

Total number of variables............................:      403
                     variables with only lower bounds:      124
                variables with lower and upper bounds:      217
                     variables with only upper bounds:        0
Total number of equality constraints.................:      402
Total number of inequality constraints...............:        0
        inequality constraints with only lower bounds:        0
   inequality constraints with lower and upper bounds:        0
        inequality constraints with only upper bounds:        0

iter    objective    inf_pr   inf_du lg(mu)  ||d||  lg(rg) alpha_du alpha_pr  ls
   0  0.0000000e+00 1.17e+00 6.66e-16  -1.0 0.00e+00    -  0.00e+00 0.00e+00   0
   1  3.9869486e-02 1.10e+00 3.19e+04  -1.0 2.00e+05    -  3.21e-01 6.34e-02h  1
   2  7.9574497e-02 1.07e+00 3.26e+04  -1.0 2.42e+05    -  4.73e-01 2.49e-02h  1
   3  1.7676019e+01 3.46e-01 9.01e+04  -1.0 2.38e+05    -  4.80e-01 9.90e-01h  1
   4  2.3001368e+01 5.17e-02 1.98e+03  -1.0 3.60e+04    -  7.56e-01 9.90e-01h  1
   5  2.3156428e+01 1.79e-03 6.75e+02  -1.0 1.53e+03    -  9.84e-01 9.90e-01h  1
   6  2.3163084e+01 1.95e-05 1.19e+01  -1.0 7.55e+01    -  9.90e-01 9.90e-01h  1
   7  2.3302421e+01 6.86e-05 1.00e+04  -1.0 2.12e+03    -  9.90e-01 9.90e-01H  1
   8  2.3160650e+01 2.14e-03 7.60e+07  -3.8 4.06e+03    -  9.77e-01 5.15e-01f  1
   9  2.3158188e+01 1.71e-06 3.16e+04  -3.8 3.49e+01    -  1.00e+00 1.00e+00h  1
In iteration 9, 31 Slacks too small, adjusting variable bounds
iter    objective    inf_pr   inf_du lg(mu)  ||d||  lg(rg) alpha_du alpha_pr  ls
  10  2.3158174e+01 1.93e-10 3.40e+08  -3.8 2.06e-01    -  1.00e+00 1.00e+00h  1
  11  2.3158174e+01 3.26e-12 2.37e-04  -3.8 2.67e-04    -  1.00e+00 1.00e+00h  1
  12  2.3158023e+01 6.02e-12 1.31e+06  -9.0 2.23e+00    -  1.00e+00 9.99e-01F  1
  13  2.3158023e+01 3.19e-12 2.27e-10  -9.0 1.34e-05    -  1.00e+00 1.00e+00h  1

Number of Iterations....: 13

                                   (scaled)                 (unscaled)
Objective...............:   2.3158023089127688e+01    2.3158023089127688e+01
Dual infeasibility......:   2.2737367544323206e-10    2.2737367544323206e-10
Constraint violation....:   3.1858959914643492e-12    3.1858959914643492e-12
Complementarity.........:   9.0909102504200209e-10    9.0909102504200209e-10
Overall NLP error.......:   1.6969312807142788e-10    9.0909102504200209e-10


Number of objective function evaluations             = 19
Number of objective gradient evaluations             = 14
Number of equality constraint evaluations            = 19
Number of inequality constraint evaluations          = 0
Number of equality constraint Jacobian evaluations   = 14
Number of inequality constraint Jacobian evaluations = 0
Number of Lagrangian Hessian evaluations             = 13
Total CPU secs in IPOPT (w/o function evaluations)   =      0.034
Total CPU secs in NLP function evaluations           =      0.312

EXIT: Optimal Solution Found.
